Problem:    numeri
Rows:       28
Columns:    28 (27 integer, 27 binary)
Non-zeros:  89
Status:     INTEGER OPTIMAL
Objective:  risultato = 999 (MAXimum)

   No.   Row name        Activity     Lower bound   Upper bound
------ ------------    ------------- ------------- -------------
     1 pesoUnico[1]                1             1             = 
     2 pesoUnico[2]                1             1             = 
     3 pesoUnico[3]                1             1             = 
     4 pesoUnico[4]                1             1             = 
     5 pesoUnico[5]                1             1             = 
     6 pesoUnico[6]                1             1             = 
     7 pesoUnico[7]                1             1             = 
     8 pesoUnico[8]                1             1             = 
     9 pesoUnico[9]                1             1             = 
    10 implicazioneLogica[1,1]
                                  -1                          -0 
    11 implicazioneLogica[1,2]
                                   0                          -0 
    12 implicazioneLogica[2,1]
                                  -1                          -0 
    13 implicazioneLogica[2,2]
                                   0                          -0 
    14 implicazioneLogica[3,1]
                                   0                          -0 
    15 implicazioneLogica[3,2]
                                   0                          -0 
    16 implicazioneLogica[4,1]
                                   0                          -0 
    17 implicazioneLogica[4,2]
                                   0                          -0 
    18 implicazioneLogica[5,1]
                                   0                          -0 
    19 implicazioneLogica[5,2]
                                   0                          -0 
    20 implicazioneLogica[6,1]
                                   0                          -0 
    21 implicazioneLogica[6,2]
                                   0                          -0 
    22 implicazioneLogica[7,1]
                                   0                          -0 
    23 implicazioneLogica[7,2]
                                   0                          -0 
    24 implicazioneLogica[8,1]
                                   0                          -0 
    25 implicazioneLogica[8,2]
                                   0                          -0 
    26 UltimaPosizione
                                   1             1             = 
    27 calcoloSomma                0            -0             = 
    28 risultato                 999                             

   No. Column name       Activity     Lower bound   Upper bound
------ ------------    ------------- ------------- -------------
     1 x[1,0]       *              1             0             1 
     2 x[1,1]       *              0             0             1 
     3 x[1,2]       *              0             0             1 
     4 x[2,0]       *              1             0             1 
     5 x[2,1]       *              0             0             1 
     6 x[2,2]       *              0             0             1 
     7 x[3,0]       *              1             0             1 
     8 x[3,1]       *              0             0             1 
     9 x[3,2]       *              0             0             1 
    10 x[4,0]       *              0             0             1 
    11 x[4,1]       *              0             0             1 
    12 x[4,2]       *              1             0             1 
    13 x[5,0]       *              0             0             1 
    14 x[5,1]       *              1             0             1 
    15 x[5,2]       *              0             0             1 
    16 x[6,0]       *              1             0             1 
    17 x[6,1]       *              0             0             1 
    18 x[6,2]       *              0             0             1 
    19 x[7,0]       *              0             0             1 
    20 x[7,1]       *              0             0             1 
    21 x[7,2]       *              1             0             1 
    22 x[8,0]       *              0             0             1 
    23 x[8,1]       *              1             0             1 
    24 x[8,2]       *              0             0             1 
    25 x[9,0]       *              1             0             1 
    26 x[9,1]       *              0             0             1 
    27 x[9,2]       *              0             0             1 
    28 somma                     999                        1000 

Integer feasibility conditions:

KKT.PE: max.abs.err = 0.00e+00 on row 0
        max.rel.err = 0.00e+00 on row 0
        High quality

KKT.PB: max.abs.err = 0.00e+00 on row 0
        max.rel.err = 0.00e+00 on row 0
        High quality

End of output
